clingo version 5.5.2
Reading from ...nt/beegfs/home/jubruns/encoding/mif.lp ...
Solving...
Answer: 1
move(1,(13,2),(13,3),1) move(1,(13,3),(12,3),2) move(1,(12,3),(11,3),3) move(1,(11,3),(11,4),4) move(1,(11,4),(11,5),5) move(1,(11,5),(10,5),6) move(1,(10,5),(9,5),7) move(1,(9,5),(8,5),8) move(1,(8,5),(7,5),9) move(1,(7,5),(6,5),10) move(1,(6,5),(5,5),11) move(1,(5,5),(4,5),12) move(1,(4,5),(3,5),13) move(1,(3,5),(3,6),14) move(1,(3,6),(3,7),15) move(1,(3,7),(3,8),16) move(1,(3,8),(3,9),17) move(1,(3,9),(2,9),18) move(1,(2,9),(1,9),19) move(1,(1,9),(1,8),20) move(1,(1,8),(1,7),21) move(1,(1,7),(1,6),22) move(1,(1,6),(1,5),23) move(1,(1,5),(1,4),24) move(2,(7,7),(7,6),2) move(2,(7,6),(7,5),3) move(2,(7,5),(6,5),4) move(2,(6,5),(5,5),5) move(2,(5,5),(4,5),6) move(2,(4,5),(3,5),7) move(2,(3,5),(3,6),8) move(2,(3,6),(3,7),9) move(2,(3,7),(4,7),10) move(2,(4,7),(5,7),11)
SATISFIABLE

Models       : 1+
Calls        : 1
Time         : 0.134s (Solving: 0.00s 1st Model: 0.00s Unsat: 0.00s)
CPU Time     : 0.117s

Choices      : 127      (Domain: 127)
Conflicts    : 1        (Analyzed: 1)
Restarts     : 0       
Model-Level  : 118.0   
Problems     : 1        (Average Length: 0.00 Splits: 0)
Lemmas       : 1        (Deleted: 0)
  Binary     : 0        (Ratio:   0.00%)
  Ternary    : 0        (Ratio:   0.00%)
  Conflict   : 1        (Average Length:   15.0 Ratio: 100.00%) 
  Loop       : 0        (Average Length:    0.0 Ratio:   0.00%) 
  Other      : 0        (Average Length:    0.0 Ratio:   0.00%) 
Backjumps    : 1        (Average:  9.00 Max:   9 Sum:      9)
  Executed   : 1        (Average:  9.00 Max:   9 Sum:      9 Ratio: 100.00%)
  Bounded    : 0        (Average:  0.00 Max:   0 Sum:      0 Ratio:   0.00%)

Rules        : 68637    (Original: 38089)
  Choice     : 48      
  Heuristic  : 1279     (Original: 2204)
Atoms        : 36515    (Original: 21907 Auxiliary: 14608)
Bodies       : 32956    (Original: 22366)
  Count      : 13       (Original: 144)
Equivalences : 28560    (Atom=Atom: 156 Body=Body: 182 Other: 28222)
Tight        : Yes
Variables    : 32619    (Eliminated:    0 Frozen: 3024)
Constraints  : 58927    (Binary:  86.3% Ternary:  12.3% Other:   1.4%)

